
  32    1
  10

   0   0   5 2 3 4 6 10 
   3   1   3 9 7 5 
   3   7   4 15 12 9 7 
   5   2   4 15 12 11 8 
   7   5   5 21 15 13 12 11 
   1   3   4 15 14 11 9 
   2   6   4 21 14 13 11 
   6   5   4 21 18 17 13 
   4   3   3 18 17 13 
  10   6   3 18 17 13 
   3   6   3 18 17 16 
   9   4   2 18 14 
   6   4   1 16 
   6   4   1 16 
   3   4   1 16 
   8   2   2 20 19 
   5   3   2 20 19 
  10   4   2 27 22 
   5   3   5 31 27 25 24 23 
   2   5   1 22 
   7   9   1 22 
   9   2   4 31 25 24 23 
   9   6   2 29 26 
   4   1   2 29 26 
   6   4   2 30 29 
   1   5   1 28 
   6   1   1 28 
   1   2   1 32
   7   9   1 32
   5   1   1 32
  10   3   1 32
   0   0   0 
